NAME : morphed22-2-5
COMMENT : Generated using the function morphInstances from the R-package netgen (Bossek,2015) - Number of clusters: 2 Alpha: 0.5
TYPE : TSP
DIMENSION : 22
EDGE_WEIGHT_TYPE : EUC_2D
NODE_COORD_SECTION
1 19.0110319234 23.60415351
2 76.1635712153 55.997860045
3 90.7222876807 47.5347590736
4 21.2989545517 50.4370054068
5 7.378064407 46.7824234848
6 74.448998974 97.4945773712
7 29.9971681846 35.1237393268
8 85.3321959278 97.0562018974
9 94.1191817283 64.269617099
10 6.9962993423 23.5951581748
11 17.2532183214 39.6056159834
12 26.4014881494 25.0403129386
13 18.2871335305 21.1980545232
14 67.3746130651 71.2446917804
15 27.1134392352 59.6656157121
16 11.313639044 60.5083761656
17 26.1036725812 45.9234719666
18 87.6853586916 66.7060855364
19 60.7771709538 90.5394660281
20 85.123402394 56.1888587642
21 89.6016893379 88.2423620848
22 78.1057652692 72.8225017727
EOF
